
******************************************************************************
This program contains Ipopt, a library for large-scale nonlinear optimization.
 Ipopt is released as open source code under the Eclipse Public License (EPL).
         For more information visit http://projects.coin-or.org/Ipopt
******************************************************************************

This is Ipopt version 3.12.13, running with linear solver ma57.

Number of nonzeros in equality constraint Jacobian...:        0
Number of nonzeros in inequality constraint Jacobian.:     9144
Number of nonzeros in Lagrangian Hessian.............:       21

Total number of variables............................:        6
                     variables with only lower bounds:        0
                variables with lower and upper bounds:        6
                     variables with only upper bounds:        0
Total number of equality constraints.................:        0
Total number of inequality constraints...............:     1524
        inequality constraints with only lower bounds:        0
   inequality constraints with lower and upper bounds:        0
        inequality constraints with only upper bounds:     1524

iter    objective    inf_pr   inf_du lg(mu)  ||d||  lg(rg) alpha_du alpha_pr  ls
   0  9.0015470e-02 0.00e+00 6.16e+00   0.0 0.00e+00    -  0.00e+00 0.00e+00   0
   1  9.1749440e-02 0.00e+00 8.45e-01  -1.2 9.61e-03   2.0 9.90e-01 1.00e+00f  1
   2  1.0325156e-01 0.00e+00 1.63e+00  -1.0 4.98e-02   1.5 1.00e+00 1.00e+00f  1
   3  1.4710618e-01 0.00e+00 1.33e+00  -1.0 1.48e-01   1.0 1.00e+00 1.00e+00f  1
   4  2.7684899e-01 0.00e+00 1.42e+00  -1.0 4.34e-01   0.6 1.00e+00 7.21e-01f  1
   5  3.9228744e-01 0.00e+00 5.82e-01  -1.0 9.67e-01    -  8.20e-01 2.81e-01f  1
   6  3.8491864e-01 0.00e+00 5.07e-02  -1.7 4.25e-02    -  1.00e+00 1.00e+00h  1
   7  3.1487409e-01 0.00e+00 5.03e-01  -2.5 1.43e-01    -  3.39e-01 1.00e+00f  1
   8  1.4799243e-01 0.00e+00 2.18e-01  -2.5 4.69e-01    -  6.11e-01 1.00e+00h  1
   9  2.4993293e-02 0.00e+00 1.04e-01  -2.5 6.10e-01    -  1.00e+00 1.00e+00h  1
iter    objective    inf_pr   inf_du lg(mu)  ||d||  lg(rg) alpha_du alpha_pr  ls
  10  4.6471779e-03 0.00e+00 1.81e-02  -3.1 1.76e-01    -  8.74e-01 1.00e+00h  1
  11  1.2075074e-04 0.00e+00 2.93e-03  -3.8 9.93e-02    -  1.00e+00 1.00e+00h  1
  12  1.1217664e-07 0.00e+00 1.36e-04  -5.7 1.29e-02    -  9.94e-01 1.00e+00h  1

Number of Iterations....: 12

                                   (scaled)                 (unscaled)
Objective...............:   1.1217664188248641e-07    1.1217664188248641e-07
Dual infeasibility......:   1.3554770227691370e-04    1.3554770227691370e-04
Constraint violation....:   0.0000000000000000e+00    0.0000000000000000e+00
Complementarity.........:   1.8960457672859780e-05    1.8960457672859780e-05
Overall NLP error.......:   1.3554770227691370e-04    1.3554770227691370e-04


Number of objective function evaluations             = 13
Number of objective gradient evaluations             = 13
Number of equality constraint evaluations            = 0
Number of inequality constraint evaluations          = 13
Number of equality constraint Jacobian evaluations   = 0
Number of inequality constraint Jacobian evaluations = 13
Number of Lagrangian Hessian evaluations             = 12
Total CPU secs in IPOPT (w/o function evaluations)   =      0.016
Total CPU secs in NLP function evaluations           =      0.033

EXIT: Optimal Solution Found.
